p cnf 963 2472
51 -696 -1 0
-51 696 0
-51 1 0
52 -51 -3 0
-52 51 0
-52 3 0
53 -697 -4 0
-53 697 0
-53 4 0
54 -53 -698 0
-54 53 0
-54 698 0
55 -699 -700 0
-55 699 0
-55 700 0
56 -8 -701 0
-56 8 0
-56 701 0
57 -56 -702 0
-57 56 0
-57 702 0
58 -703 -55 0
-58 703 0
-58 55 0
59 -11 -10 0
-59 11 0
-59 10 0
60 -59 -704 0
-60 59 0
-60 704 0
61 -705 -58 0
-61 705 0
-61 58 0
62 -706 -13 0
-62 706 0
-62 13 0
63 -62 -707 0
-63 62 0
-63 707 0
64 -708 -61 0
-64 708 0
-64 61 0
65 -16 -709 0
-65 16 0
-65 709 0
66 -65 -15 0
-66 65 0
-66 15 0
67 -710 -64 0
-67 710 0
-67 64 0
68 -711 -712 0
-68 711 0
-68 712 0
69 -68 -713 0
-69 68 0
-69 713 0
70 -714 -67 0
-70 714 0
-70 67 0
71 -20 -715 0
-71 20 0
-71 715 0
72 -71 -18 0
-72 71 0
-72 18 0
73 -716 -70 0
-73 716 0
-73 70 0
74 -22 -21 0
-74 22 0
-74 21 0
75 -74 -23 0
-75 74 0
-75 23 0
76 -717 -73 0
-76 717 0
-76 73 0
77 -718 -6 0
-77 718 0
-77 6 0
78 -77 -719 0
-78 77 0
-78 719 0
79 -720 -76 0
-79 720 0
-79 76 0
80 -26 -10 0
-80 26 0
-80 10 0
81 -80 -721 0
-81 80 0
-81 721 0
82 -722 -79 0
-82 722 0
-82 79 0
83 -29 -28 0
-83 29 0
-83 28 0
84 -83 -723 0
-84 83 0
-84 723 0
85 -724 -82 0
-85 724 0
-85 82 0
86 -31 -725 0
-86 31 0
-86 725 0
87 -86 -726 0
-87 86 0
-87 726 0
88 -727 -85 0
-88 727 0
-88 85 0
89 -9 -6 0
-89 9 0
-89 6 0
90 -89 -728 0
-90 89 0
-90 728 0
91 -729 -88 0
-91 729 0
-91 88 0
92 -33 -730 0
-92 33 0
-92 730 0
93 -92 -698 0
-93 92 0
-93 698 0
94 -731 -91 0
-94 731 0
-94 91 0
95 -24 -2 0
-95 24 0
-95 2 0
96 -95 -32 0
-96 95 0
-96 32 0
97 -732 -94 0
-97 732 0
-97 94 0
98 -34 -2 0
-98 34 0
-98 2 0
99 -98 -35 0
-99 98 0
-99 35 0
100 -733 -97 0
-100 733 0
-100 97 0
101 -37 -36 0
-101 37 0
-101 36 0
102 -101 -734 0
-102 101 0
-102 734 0
103 -735 -100 0
-103 735 0
-103 100 0
104 -736 -737 0
-104 736 0
-104 737 0
105 -104 -11 0
-105 104 0
-105 11 0
106 -738 -103 0
-106 738 0
-106 103 0
107 -26 -23 0
-107 26 0
-107 23 0
108 -107 -739 0
-108 107 0
-108 739 0
109 -740 -106 0
-109 740 0
-109 106 0
110 -741 -7 0
-110 741 0
-110 7 0
111 -110 -12 0
-111 110 0
-111 12 0
112 -742 -109 0
-112 742 0
-112 109 0
113 -706 -6 0
-113 706 0
-113 6 0
114 -113 -35 0
-114 113 0
-114 35 0
115 -743 -112 0
-115 743 0
-115 112 0
116 -744 -5 0
-116 744 0
-116 5 0
117 -116 -9 0
-117 116 0
-117 9 0
118 -745 -115 0
-118 745 0
-118 115 0
119 -746 -739 0
-119 746 0
-119 739 0
120 -119 -713 0
-120 119 0
-120 713 0
121 -747 -118 0
-121 747 0
-121 118 0
122 -26 -17 0
-122 26 0
-122 17 0
123 -122 -16 0
-123 122 0
-123 16 0
124 -748 -121 0
-124 748 0
-124 121 0
125 -29 -749 0
-125 29 0
-125 749 0
126 -125 -12 0
-126 125 0
-126 12 0
127 -750 -124 0
-127 750 0
-127 124 0
128 -39 -751 0
-128 39 0
-128 751 0
129 -128 -707 0
-129 128 0
-129 707 0
130 -752 -127 0
-130 752 0
-130 127 0
131 -753 -754 0
-131 753 0
-131 754 0
132 -131 -755 0
-132 131 0
-132 755 0
133 -756 -130 0
-133 756 0
-133 130 0
134 -712 -16 0
-134 712 0
-134 16 0
135 -134 -707 0
-135 134 0
-135 707 0
136 -757 -133 0
-136 757 0
-136 133 0
137 -736 -27 0
-137 736 0
-137 27 0
138 -137 -25 0
-138 137 0
-138 25 0
139 -758 -136 0
-139 758 0
-139 136 0
140 -29 -715 0
-140 29 0
-140 715 0
141 -140 -706 0
-141 140 0
-141 706 0
142 -759 -139 0
-142 759 0
-142 139 0
143 -25 -22 0
-143 25 0
-143 22 0
144 -143 -760 0
-144 143 0
-144 760 0
145 -761 -142 0
-145 761 0
-145 142 0
146 -39 -696 0
-146 39 0
-146 696 0
147 -146 -45 0
-147 146 0
-147 45 0
148 -762 -145 0
-148 762 0
-148 145 0
149 -734 -737 0
-149 734 0
-149 737 0
150 -149 -755 0
-150 149 0
-150 755 0
151 -763 -148 0
-151 763 0
-151 148 0
152 -40 -2 0
-152 40 0
-152 2 0
153 -152 -43 0
-153 152 0
-153 43 0
154 -764 -151 0
-154 764 0
-154 151 0
155 -746 -17 0
-155 746 0
-155 17 0
156 -155 -5 0
-156 155 0
-156 5 0
157 -765 -154 0
-157 765 0
-157 154 0
158 -766 -767 0
-158 766 0
-158 767 0
159 -158 -20 0
-159 158 0
-159 20 0
160 -768 -157 0
-160 768 0
-160 157 0
161 -33 -721 0
-161 33 0
-161 721 0
162 -161 -12 0
-162 161 0
-162 12 0
163 -769 -160 0
-163 769 0
-163 160 0
164 -770 -697 0
-164 770 0
-164 697 0
165 -164 -39 0
-165 164 0
-165 39 0
166 -771 -163 0
-166 771 0
-166 163 0
167 -34 -4 0
-167 34 0
-167 4 0
168 -167 -46 0
-168 167 0
-168 46 0
169 -772 -166 0
-169 772 0
-169 166 0
170 -773 -5 0
-170 773 0
-170 5 0
171 -170 -12 0
-171 170 0
-171 12 0
172 -774 -169 0
-172 774 0
-172 169 0
173 -37 -3 0
-173 37 0
-173 3 0
174 -173 -734 0
-174 173 0
-174 734 0
175 -775 -172 0
-175 775 0
-175 172 0
176 -24 -21 0
-176 24 0
-176 21 0
177 -176 -767 0
-177 176 0
-177 767 0
178 -776 -175 0
-178 776 0
-178 175 0
179 -726 -11 0
-179 726 0
-179 11 0
180 -179 -777 0
-180 179 0
-180 777 0
181 -778 -178 0
-181 778 0
-181 178 0
182 -47 -12 0
-182 47 0
-182 12 0
183 -182 -48 0
-183 182 0
-183 48 0
184 -779 -181 0
-184 779 0
-184 181 0
185 -780 -697 0
-185 780 0
-185 697 0
186 -185 -777 0
-186 185 0
-186 777 0
187 -781 -184 0
-187 781 0
-187 184 0
188 -28 -697 0
-188 28 0
-188 697 0
189 -188 -734 0
-189 188 0
-189 734 0
190 -782 -187 0
-190 782 0
-190 187 0
191 -783 -22 0
-191 783 0
-191 22 0
192 -191 -42 0
-192 191 0
-192 42 0
193 -784 -190 0
-193 784 0
-193 190 0
194 -40 -1 0
-194 40 0
-194 1 0
195 -194 -9 0
-195 194 0
-195 9 0
196 -785 -193 0
-196 785 0
-196 193 0
197 -737 -744 0
-197 737 0
-197 744 0
198 -197 -11 0
-198 197 0
-198 11 0
199 -786 -196 0
-199 786 0
-199 196 0
200 -40 -737 0
-200 40 0
-200 737 0
201 -200 -726 0
-201 200 0
-201 726 0
202 -787 -199 0
-202 787 0
-202 199 0
203 -780 -28 0
-203 780 0
-203 28 0
204 -203 -760 0
-204 203 0
-204 760 0
205 -788 -202 0
-205 788 0
-205 202 0
206 -783 -21 0
-206 783 0
-206 21 0
207 -206 -48 0
-207 206 0
-207 48 0
208 -789 -205 0
-208 789 0
-208 205 0
209 -767 -709 0
-209 767 0
-209 709 0
210 -209 -20 0
-210 209 0
-210 20 0
211 -790 -208 0
-211 790 0
-211 208 0
212 -40 -791 0
-212 40 0
-212 791 0
213 -212 -792 0
-213 212 0
-213 792 0
214 -793 -211 0
-214 793 0
-214 211 0
215 -188 -23 0
-215 188 0
-215 23 0
216 -794 -214 0
-216 794 0
-216 214 0
217 -33 -697 0
-217 33 0
-217 697 0
218 -217 -42 0
-218 217 0
-218 42 0
219 -795 -216 0
-219 795 0
-219 216 0
220 -30 -711 0
-220 30 0
-220 711 0
221 -220 -777 0
-221 220 0
-221 777 0
222 -796 -219 0
-222 796 0
-222 219 0
223 -49 -15 0
-223 49 0
-223 15 0
224 -223 -35 0
-224 223 0
-224 35 0
225 -797 -222 0
-225 797 0
-225 222 0
226 -27 -707 0
-226 27 0
-226 707 0
227 -226 -46 0
-227 226 0
-227 46 0
228 -798 -225 0
-228 798 0
-228 225 0
229 -783 -746 0
-229 783 0
-229 746 0
230 -229 -709 0
-230 229 0
-230 709 0
231 -799 -228 0
-231 799 0
-231 228 0
232 -33 -725 0
-232 33 0
-232 725 0
233 -232 -9 0
-233 232 0
-233 9 0
234 -800 -231 0
-234 800 0
-234 231 0
235 -736 -33 0
-235 736 0
-235 33 0
236 -235 -741 0
-236 235 0
-236 741 0
237 -801 -234 0
-237 801 0
-237 234 0
238 -736 -10 0
-238 736 0
-238 10 0
239 -238 -18 0
-239 238 0
-239 18 0
240 -802 -237 0
-240 802 0
-240 237 0
241 -736 -767 0
-241 736 0
-241 767 0
242 -241 -760 0
-242 241 0
-242 760 0
243 -803 -240 0
-243 803 0
-243 240 0
244 -17 -13 0
-244 17 0
-244 13 0
245 -244 -38 0
-245 244 0
-245 38 0
246 -804 -243 0
-246 804 0
-246 243 0
247 -29 -709 0
-247 29 0
-247 709 0
248 -247 -706 0
-248 247 0
-248 706 0
249 -805 -246 0
-249 805 0
-249 246 0
250 -45 -14 0
-250 45 0
-250 14 0
251 -250 -43 0
-251 250 0
-251 43 0
252 -806 -249 0
-252 806 0
-252 249 0
253 -47 -751 0
-253 47 0
-253 751 0
254 -253 -18 0
-254 253 0
-254 18 0
255 -807 -252 0
-255 807 0
-255 252 0
256 -709 -7 0
-256 709 0
-256 7 0
257 -256 -42 0
-257 256 0
-257 42 0
258 -808 -255 0
-258 808 0
-258 255 0
259 -725 -709 0
-259 725 0
-259 709 0
260 -259 -711 0
-260 259 0
-260 711 0
261 -809 -258 0
-261 809 0
-261 258 0
262 -45 -6 0
-262 45 0
-262 6 0
263 -262 -27 0
-263 262 0
-263 27 0
264 -810 -261 0
-264 810 0
-264 261 0
265 -37 -8 0
-265 37 0
-265 8 0
266 -265 -698 0
-266 265 0
-266 698 0
267 -811 -264 0
-267 811 0
-267 264 0
268 -36 -812 0
-268 36 0
-268 812 0
269 -268 -1 0
-269 268 0
-269 1 0
270 -813 -267 0
-270 813 0
-270 267 0
271 -791 -1 0
-271 791 0
-271 1 0
272 -271 -814 0
-272 271 0
-272 814 0
273 -815 -270 0
-273 815 0
-273 270 0
274 -45 -40 0
-274 45 0
-274 40 0
275 -274 -702 0
-275 274 0
-275 702 0
276 -816 -273 0
-276 816 0
-276 273 0
277 -817 -41 0
-277 817 0
-277 41 0
278 -277 -698 0
-278 277 0
-278 698 0
279 -818 -276 0
-279 818 0
-279 276 0
280 -37 -23 0
-280 37 0
-280 23 0
281 -280 -38 0
-281 280 0
-281 38 0
282 -819 -279 0
-282 819 0
-282 279 0
283 -16 -6 0
-283 16 0
-283 6 0
284 -283 -18 0
-284 283 0
-284 18 0
285 -820 -282 0
-285 820 0
-285 282 0
286 -23 -698 0
-286 23 0
-286 698 0
287 -286 -19 0
-287 286 0
-287 19 0
288 -821 -285 0
-288 821 0
-288 285 0
289 -50 -36 0
-289 50 0
-289 36 0
290 -289 -780 0
-290 289 0
-290 780 0
291 -822 -288 0
-291 822 0
-291 288 0
292 -38 -823 0
-292 38 0
-292 823 0
293 -292 -48 0
-293 292 0
-293 48 0
294 -824 -291 0
-294 824 0
-294 291 0
295 -49 -10 0
-295 49 0
-295 10 0
296 -295 -723 0
-296 295 0
-296 723 0
297 -825 -294 0
-297 825 0
-297 294 0
298 -47 -10 0
-298 47 0
-298 10 0
299 -298 -780 0
-299 298 0
-299 780 0
300 -826 -297 0
-300 826 0
-300 297 0
301 -739 -22 0
-301 739 0
-301 22 0
302 -301 -43 0
-302 301 0
-302 43 0
303 -827 -300 0
-303 827 0
-303 300 0
304 -49 -20 0
-304 49 0
-304 20 0
305 -304 -719 0
-305 304 0
-305 719 0
306 -828 -303 0
-306 828 0
-306 303 0
307 -698 -4 0
-307 698 0
-307 4 0
308 -307 -777 0
-308 307 0
-308 777 0
309 -829 -306 0
-309 829 0
-309 306 0
310 -791 -702 0
-310 791 0
-310 702 0
311 -310 -719 0
-311 310 0
-311 719 0
312 -830 -309 0
-312 830 0
-312 309 0
313 -26 -7 0
-313 26 0
-313 7 0
314 -313 -791 0
-314 313 0
-314 791 0
315 -831 -312 0
-315 831 0
-315 312 0
316 -41 -711 0
-316 41 0
-316 711 0
317 -316 -35 0
-317 316 0
-317 35 0
318 -832 -315 0
-318 832 0
-318 315 0
319 -241 -814 0
-319 241 0
-319 814 0
320 -833 -318 0
-320 833 0
-320 318 0
321 -42 -6 0
-321 42 0
-321 6 0
322 -321 -15 0
-322 321 0
-322 15 0
323 -834 -320 0
-323 834 0
-323 320 0
324 -41 -701 0
-324 41 0
-324 701 0
325 -324 -3 0
-325 324 0
-325 3 0
326 -835 -323 0
-326 835 0
-326 323 0
327 -40 -751 0
-327 40 0
-327 751 0
328 -327 -814 0
-328 327 0
-328 814 0
329 -836 -326 0
-329 836 0
-329 326 0
330 -718 -837 0
-330 718 0
-330 837 0
331 -330 -13 0
-331 330 0
-331 13 0
332 -838 -329 0
-332 838 0
-332 329 0
333 -31 -7 0
-333 31 0
-333 7 0
334 -333 -741 0
-334 333 0
-334 741 0
335 -839 -332 0
-335 839 0
-335 332 0
336 -3 -2 0
-336 3 0
-336 2 0
337 -336 -698 0
-337 336 0
-337 698 0
338 -840 -335 0
-338 840 0
-338 335 0
339 -817 -22 0
-339 817 0
-339 22 0
340 -339 -38 0
-340 339 0
-340 38 0
341 -841 -338 0
-341 841 0
-341 338 0
342 -709 -4 0
-342 709 0
-342 4 0
343 -342 -49 0
-343 342 0
-343 49 0
344 -842 -341 0
-344 842 0
-344 341 0
345 -39 -6 0
-345 39 0
-345 6 0
346 -345 -12 0
-346 345 0
-346 12 0
347 -843 -344 0
-347 843 0
-347 344 0
348 -14 -709 0
-348 14 0
-348 709 0
349 -348 -20 0
-349 348 0
-349 20 0
350 -844 -347 0
-350 844 0
-350 347 0
351 -845 -33 0
-351 845 0
-351 33 0
352 -351 -43 0
-352 351 0
-352 43 0
353 -846 -350 0
-353 846 0
-353 350 0
354 -30 -754 0
-354 30 0
-354 754 0
355 -354 -38 0
-355 354 0
-355 38 0
356 -847 -353 0
-356 847 0
-356 353 0
357 -767 -706 0
-357 767 0
-357 706 0
358 -357 -30 0
-358 357 0
-358 30 0
359 -848 -356 0
-359 848 0
-359 356 0
360 -817 -11 0
-360 817 0
-360 11 0
361 -360 -19 0
-361 360 0
-361 19 0
362 -849 -359 0
-362 849 0
-362 359 0
363 -823 -701 0
-363 823 0
-363 701 0
364 -363 -704 0
-364 363 0
-364 704 0
365 -850 -362 0
-365 850 0
-365 362 0
366 -47 -767 0
-366 47 0
-366 767 0
367 -366 -739 0
-367 366 0
-367 739 0
368 -851 -365 0
-368 851 0
-368 365 0
369 -770 -34 0
-369 770 0
-369 34 0
370 -369 -49 0
-370 369 0
-370 49 0
371 -852 -368 0
-371 852 0
-371 368 0
372 -40 -767 0
-372 40 0
-372 767 0
373 -372 -45 0
-373 372 0
-373 45 0
374 -853 -371 0
-374 853 0
-374 371 0
375 -41 -730 0
-375 41 0
-375 730 0
376 -375 -854 0
-376 375 0
-376 854 0
377 -855 -374 0
-377 855 0
-377 374 0
378 -783 -711 0
-378 783 0
-378 711 0
379 -378 -777 0
-379 378 0
-379 777 0
380 -856 -377 0
-380 856 0
-380 377 0
381 -767 -23 0
-381 767 0
-381 23 0
382 -381 -704 0
-382 381 0
-382 704 0
383 -857 -380 0
-383 857 0
-383 380 0
384 -18 -712 0
-384 18 0
-384 712 0
385 -384 -35 0
-385 384 0
-385 35 0
386 -858 -383 0
-386 858 0
-386 383 0
387 -704 -3 0
-387 704 0
-387 3 0
388 -387 -728 0
-388 387 0
-388 728 0
389 -859 -386 0
-389 859 0
-389 386 0
390 -812 -709 0
-390 812 0
-390 709 0
391 -390 -32 0
-391 390 0
-391 32 0
392 -860 -389 0
-392 860 0
-392 389 0
393 -744 -4 0
-393 744 0
-393 4 0
394 -393 -792 0
-394 393 0
-394 792 0
395 -861 -392 0
-395 861 0
-395 392 0
396 -37 -5 0
-396 37 0
-396 5 0
397 -396 -39 0
-397 396 0
-397 39 0
398 -862 -395 0
-398 862 0
-398 395 0
399 -707 -13 0
-399 707 0
-399 13 0
400 -399 -25 0
-400 399 0
-400 25 0
401 -863 -398 0
-401 863 0
-401 398 0
402 -704 -4 0
-402 704 0
-402 4 0
403 -402 -845 0
-403 402 0
-403 845 0
404 -864 -401 0
-404 864 0
-404 401 0
405 -746 -773 0
-405 746 0
-405 773 0
406 -405 -33 0
-406 405 0
-406 33 0
407 -865 -404 0
-407 865 0
-407 404 0
408 -712 -8 0
-408 712 0
-408 8 0
409 -408 -760 0
-409 408 0
-409 760 0
410 -866 -407 0
-410 866 0
-410 407 0
411 -31 -24 0
-411 31 0
-411 24 0
412 -411 -726 0
-412 411 0
-412 726 0
413 -867 -410 0
-413 867 0
-413 410 0
414 -185 -25 0
-414 185 0
-414 25 0
415 -868 -413 0
-415 868 0
-415 413 0
416 -8 -837 0
-416 8 0
-416 837 0
417 -416 -734 0
-417 416 0
-417 734 0
418 -869 -415 0
-418 869 0
-418 415 0
419 -712 -701 0
-419 712 0
-419 701 0
420 -419 -35 0
-420 419 0
-420 35 0
421 -870 -418 0
-421 870 0
-421 418 0
422 -23 -20 0
-422 23 0
-422 20 0
423 -422 -11 0
-423 422 0
-423 11 0
424 -871 -421 0
-424 871 0
-424 421 0
425 -36 -5 0
-425 36 0
-425 5 0
426 -425 -726 0
-426 425 0
-426 726 0
427 -872 -424 0
-427 872 0
-427 424 0
428 -28 -718 0
-428 28 0
-428 718 0
429 -428 -728 0
-429 428 0
-429 728 0
430 -873 -427 0
-430 873 0
-430 427 0
431 -753 -6 0
-431 753 0
-431 6 0
432 -431 -19 0
-432 431 0
-432 19 0
433 -874 -430 0
-433 874 0
-433 430 0
434 -24 -744 0
-434 24 0
-434 744 0
435 -434 -6 0
-435 434 0
-435 6 0
436 -875 -433 0
-436 875 0
-436 433 0
437 -28 -18 0
-437 28 0
-437 18 0
438 -437 -25 0
-438 437 0
-438 25 0
439 -876 -436 0
-439 876 0
-439 436 0
440 -149 -48 0
-440 149 0
-440 48 0
441 -877 -439 0
-441 877 0
-441 439 0
442 -24 -814 0
-442 24 0
-442 814 0
443 -442 -45 0
-443 442 0
-443 45 0
444 -878 -441 0
-444 878 0
-444 441 0
445 -357 -12 0
-445 357 0
-445 12 0
446 -879 -444 0
-446 879 0
-446 444 0
447 -39 -20 0
-447 39 0
-447 20 0
448 -447 -12 0
-448 447 0
-448 12 0
449 -880 -446 0
-449 880 0
-449 446 0
450 -770 -741 0
-450 770 0
-450 741 0
451 -450 -12 0
-451 450 0
-451 12 0
452 -881 -449 0
-452 881 0
-452 449 0
453 -26 -744 0
-453 26 0
-453 744 0
454 -453 -40 0
-454 453 0
-454 40 0
455 -882 -452 0
-455 882 0
-455 452 0
456 -37 -21 0
-456 37 0
-456 21 0
457 -456 -777 0
-457 456 0
-457 777 0
458 -883 -455 0
-458 883 0
-458 455 0
459 -50 -698 0
-459 50 0
-459 698 0
460 -459 -728 0
-460 459 0
-460 728 0
461 -884 -458 0
-461 884 0
-461 458 0
462 -23 -697 0
-462 23 0
-462 697 0
463 -462 -46 0
-463 462 0
-463 46 0
464 -885 -461 0
-464 885 0
-464 461 0
465 -823 -718 0
-465 823 0
-465 718 0
466 -465 -27 0
-466 465 0
-466 27 0
467 -886 -464 0
-467 886 0
-467 464 0
468 -712 -741 0
-468 712 0
-468 741 0
469 -468 -755 0
-469 468 0
-469 755 0
470 -887 -467 0
-470 887 0
-470 467 0
471 -50 -14 0
-471 50 0
-471 14 0
472 -471 -12 0
-472 471 0
-472 12 0
473 -888 -470 0
-473 888 0
-473 470 0
474 -50 -791 0
-474 50 0
-474 791 0
475 -474 -40 0
-475 474 0
-475 40 0
476 -889 -473 0
-476 889 0
-476 473 0
477 -730 -837 0
-477 730 0
-477 837 0
478 -477 -39 0
-478 477 0
-478 39 0
479 -890 -476 0
-479 890 0
-479 476 0
480 -728 -16 0
-480 728 0
-480 16 0
481 -480 -777 0
-481 480 0
-481 777 0
482 -891 -479 0
-482 891 0
-482 479 0
483 -854 -767 0
-483 854 0
-483 767 0
484 -483 -760 0
-484 483 0
-484 760 0
485 -892 -482 0
-485 892 0
-485 482 0
486 -766 -753 0
-486 766 0
-486 753 0
487 -486 -48 0
-487 486 0
-487 48 0
488 -893 -485 0
-488 893 0
-488 485 0
489 -751 -701 0
-489 751 0
-489 701 0
490 -489 -706 0
-490 489 0
-490 706 0
491 -894 -488 0
-491 894 0
-491 488 0
492 -783 -814 0
-492 783 0
-492 814 0
493 -492 -845 0
-493 492 0
-493 845 0
494 -895 -491 0
-494 895 0
-494 491 0
495 -22 -4 0
-495 22 0
-495 4 0
496 -495 -29 0
-496 495 0
-496 29 0
497 -896 -494 0
-497 896 0
-497 494 0
498 -760 -780 0
-498 760 0
-498 780 0
499 -498 -792 0
-499 498 0
-499 792 0
500 -897 -497 0
-500 897 0
-500 497 0
501 -726 -8 0
-501 726 0
-501 8 0
502 -501 -741 0
-502 501 0
-502 741 0
503 -898 -500 0
-503 898 0
-503 500 0
504 -701 -749 0
-504 701 0
-504 749 0
505 -504 -45 0
-505 504 0
-505 45 0
506 -899 -503 0
-506 899 0
-506 503 0
507 -30 -13 0
-507 30 0
-507 13 0
508 -507 -792 0
-508 507 0
-508 792 0
509 -900 -506 0
-509 900 0
-509 506 0
510 -24 -704 0
-510 24 0
-510 704 0
511 -510 -46 0
-511 510 0
-511 46 0
512 -901 -509 0
-512 901 0
-512 509 0
513 -697 -2 0
-513 697 0
-513 2 0
514 -513 -711 0
-514 513 0
-514 711 0
515 -902 -512 0
-515 902 0
-515 512 0
516 -428 -854 0
-516 428 0
-516 854 0
517 -903 -515 0
-517 903 0
-517 515 0
518 -739 -3 0
-518 739 0
-518 3 0
519 -518 -16 0
-519 518 0
-519 16 0
520 -904 -517 0
-520 904 0
-520 517 0
521 -766 -728 0
-521 766 0
-521 728 0
522 -521 -713 0
-522 521 0
-522 713 0
523 -905 -520 0
-523 905 0
-523 520 0
524 -21 -1 0
-524 21 0
-524 1 0
525 -524 -13 0
-525 524 0
-525 13 0
526 -906 -523 0
-526 906 0
-526 523 0
527 -728 -697 0
-527 728 0
-527 697 0
528 -527 -760 0
-528 527 0
-528 760 0
529 -907 -526 0
-529 907 0
-529 526 0
530 -16 -4 0
-530 16 0
-530 4 0
531 -530 -734 0
-531 530 0
-531 734 0
532 -908 -529 0
-532 908 0
-532 529 0
533 -29 -711 0
-533 29 0
-533 711 0
534 -533 -713 0
-534 533 0
-534 713 0
535 -909 -532 0
-535 909 0
-535 532 0
536 -749 -1 0
-536 749 0
-536 1 0
537 -536 -754 0
-537 536 0
-537 754 0
538 -910 -535 0
-538 910 0
-538 535 0
539 -739 -26 0
-539 739 0
-539 26 0
540 -539 -6 0
-540 539 0
-540 6 0
541 -911 -538 0
-541 911 0
-541 538 0
542 -21 -837 0
-542 21 0
-542 837 0
543 -542 -767 0
-543 542 0
-543 767 0
544 -912 -541 0
-544 912 0
-544 541 0
545 -49 -47 0
-545 49 0
-545 47 0
546 -545 -741 0
-546 545 0
-546 741 0
547 -913 -544 0
-547 913 0
-547 544 0
548 -29 -7 0
-548 29 0
-548 7 0
549 -548 -728 0
-549 548 0
-549 728 0
550 -914 -547 0
-550 914 0
-550 547 0
551 -29 -701 0
-551 29 0
-551 701 0
552 -551 -702 0
-552 551 0
-552 702 0
553 -915 -550 0
-553 915 0
-553 550 0
554 -49 -780 0
-554 49 0
-554 780 0
555 -554 -9 0
-555 554 0
-555 9 0
556 -916 -553 0
-556 916 0
-556 553 0
557 -704 -8 0
-557 704 0
-557 8 0
558 -557 -755 0
-558 557 0
-558 755 0
559 -917 -556 0
-559 917 0
-559 556 0
560 -44 -726 0
-560 44 0
-560 726 0
561 -560 -777 0
-561 560 0
-561 777 0
562 -918 -559 0
-562 918 0
-562 559 0
563 -823 -702 0
-563 823 0
-563 702 0
564 -563 -721 0
-564 563 0
-564 721 0
565 -919 -562 0
-565 919 0
-565 562 0
566 -28 -13 0
-566 28 0
-566 13 0
567 -566 -760 0
-567 566 0
-567 760 0
568 -920 -565 0
-568 920 0
-568 565 0
569 -773 -741 0
-569 773 0
-569 741 0
570 -569 -728 0
-570 569 0
-570 728 0
571 -921 -568 0
-571 921 0
-571 568 0
572 -50 -711 0
-572 50 0
-572 711 0
573 -572 -12 0
-573 572 0
-573 12 0
574 -922 -571 0
-574 922 0
-574 571 0
575 -26 -773 0
-575 26 0
-575 773 0
576 -575 -45 0
-576 575 0
-576 45 0
577 -923 -574 0
-577 923 0
-577 574 0
578 -33 -21 0
-578 33 0
-578 21 0
579 -578 -713 0
-579 578 0
-579 713 0
580 -924 -577 0
-580 924 0
-580 577 0
581 -39 -718 0
-581 39 0
-581 718 0
582 -581 -777 0
-582 581 0
-582 777 0
583 -925 -580 0
-583 925 0
-583 580 0
584 -29 -27 0
-584 29 0
-584 27 0
585 -584 -755 0
-585 584 0
-585 755 0
586 -926 -583 0
-586 926 0
-586 583 0
587 -36 -741 0
-587 36 0
-587 741 0
588 -587 -721 0
-588 587 0
-588 721 0
589 -927 -586 0
-589 927 0
-589 586 0
590 -706 -715 0
-590 706 0
-590 715 0
591 -590 -35 0
-591 590 0
-591 35 0
592 -928 -589 0
-592 928 0
-592 589 0
593 -854 -817 0
-593 854 0
-593 817 0
594 -593 -780 0
-594 593 0
-594 780 0
595 -929 -592 0
-595 929 0
-595 592 0
596 -709 -730 0
-596 709 0
-596 730 0
597 -596 -19 0
-597 596 0
-597 19 0
598 -930 -595 0
-598 930 0
-598 595 0
599 -34 -749 0
-599 34 0
-599 749 0
600 -599 -697 0
-600 599 0
-600 697 0
601 -931 -598 0
-601 931 0
-601 598 0
602 -734 -11 0
-602 734 0
-602 11 0
603 -602 -792 0
-603 602 0
-603 792 0
604 -932 -601 0
-604 932 0
-604 601 0
605 -770 -31 0
-605 770 0
-605 31 0
606 -605 -12 0
-606 605 0
-606 12 0
607 -933 -604 0
-607 933 0
-607 604 0
608 -744 -741 0
-608 744 0
-608 741 0
609 -608 -719 0
-609 608 0
-609 719 0
610 -934 -607 0
-610 934 0
-610 607 0
611 -28 -17 0
-611 28 0
-611 17 0
612 -611 -711 0
-612 611 0
-612 711 0
613 -935 -610 0
-613 935 0
-613 610 0
614 -44 -39 0
-614 44 0
-614 39 0
615 -614 -777 0
-615 614 0
-615 777 0
616 -936 -613 0
-616 936 0
-616 613 0
617 -49 -767 0
-617 49 0
-617 767 0
618 -617 -33 0
-618 617 0
-618 33 0
619 -937 -616 0
-619 937 0
-619 616 0
620 -780 -9 0
-620 780 0
-620 9 0
621 -620 -27 0
-621 620 0
-621 27 0
622 -938 -619 0
-622 938 0
-622 619 0
623 -50 -701 0
-623 50 0
-623 701 0
624 -623 -49 0
-624 623 0
-624 49 0
625 -939 -622 0
-625 939 0
-625 622 0
626 -14 -13 0
-626 14 0
-626 13 0
627 -626 -704 0
-627 626 0
-627 704 0
628 -940 -625 0
-628 940 0
-628 625 0
629 -34 -29 0
-629 34 0
-629 29 0
630 -629 -45 0
-630 629 0
-630 45 0
631 -941 -628 0
-631 941 0
-631 628 0
632 -767 -7 0
-632 767 0
-632 7 0
633 -632 -792 0
-633 632 0
-633 792 0
634 -942 -631 0
-634 942 0
-634 631 0
635 -26 -1 0
-635 26 0
-635 1 0
636 -635 -706 0
-636 635 0
-636 706 0
637 -943 -634 0
-637 943 0
-637 634 0
638 -599 -3 0
-638 599 0
-638 3 0
639 -944 -637 0
-639 944 0
-639 637 0
640 -49 -823 0
-640 49 0
-640 823 0
641 -640 -9 0
-641 640 0
-641 9 0
642 -945 -639 0
-642 945 0
-642 639 0
643 -47 -1 0
-643 47 0
-643 1 0
644 -643 -18 0
-644 643 0
-644 18 0
645 -946 -642 0
-645 946 0
-645 642 0
646 -753 -728 0
-646 753 0
-646 728 0
647 -646 -25 0
-647 646 0
-647 25 0
648 -947 -645 0
-648 947 0
-648 645 0
649 -709 -837 0
-649 709 0
-649 837 0
650 -649 -817 0
-650 649 0
-650 817 0
651 -948 -648 0
-651 948 0
-651 648 0
652 -24 -13 0
-652 24 0
-652 13 0
653 -652 -780 0
-653 652 0
-653 780 0
654 -949 -651 0
-654 949 0
-654 651 0
655 -744 -814 0
-655 744 0
-655 814 0
656 -655 -15 0
-656 655 0
-656 15 0
657 -950 -654 0
-657 950 0
-657 654 0
658 -791 -22 0
-658 791 0
-658 22 0
659 -658 -766 0
-659 658 0
-659 766 0
660 -951 -657 0
-660 951 0
-660 657 0
661 -812 -751 0
-661 812 0
-661 751 0
662 -661 -707 0
-662 661 0
-662 707 0
663 -952 -660 0
-663 952 0
-663 660 0
664 -49 -14 0
-664 49 0
-664 14 0
665 -664 -9 0
-665 664 0
-665 9 0
666 -953 -663 0
-666 953 0
-666 663 0
667 -369 -730 0
-667 369 0
-667 730 0
668 -954 -666 0
-668 954 0
-668 666 0
669 -38 -10 0
-669 38 0
-669 10 0
670 -669 -48 0
-670 669 0
-670 48 0
671 -955 -668 0
-671 955 0
-671 668 0
672 -783 -10 0
-672 783 0
-672 10 0
673 -672 -23 0
-673 672 0
-673 23 0
674 -956 -671 0
-674 956 0
-674 671 0
675 -42 -23 0
-675 42 0
-675 23 0
676 -675 -777 0
-676 675 0
-676 777 0
677 -957 -674 0
-677 957 0
-677 674 0
678 -37 -730 0
-678 37 0
-678 730 0
679 -678 -725 0
-679 678 0
-679 725 0
680 -958 -677 0
-680 958 0
-680 677 0
681 -718 -23 0
-681 718 0
-681 23 0
682 -681 -792 0
-682 681 0
-682 792 0
683 -959 -680 0
-683 959 0
-683 680 0
684 -783 -770 0
-684 783 0
-684 770 0
685 -684 -767 0
-685 684 0
-685 767 0
686 -960 -683 0
-686 960 0
-686 683 0
687 -42 -749 0
-687 42 0
-687 749 0
688 -687 -777 0
-688 687 0
-688 777 0
689 -961 -686 0
-689 961 0
-689 686 0
690 -734 -14 0
-690 734 0
-690 14 0
691 -690 -15 0
-691 690 0
-691 15 0
692 -962 -689 0
-692 962 0
-692 689 0
693 -34 -837 0
-693 34 0
-693 837 0
694 -693 -777 0
-694 693 0
-694 777 0
695 -963 -692 0
-695 963 0
-695 692 0
-696 -2 0
696 2 0
-697 -5 0
697 5 0
-698 -6 0
698 6 0
-699 -54 0
699 54 0
-700 -52 0
700 52 0
-701 -7 0
701 7 0
-702 -9 0
702 9 0
-703 -57 0
703 57 0
-704 -12 0
704 12 0
-705 -60 0
705 60 0
-706 -14 0
706 14 0
-707 -15 0
707 15 0
-708 -63 0
708 63 0
-709 -8 0
709 8 0
-710 -66 0
710 66 0
-711 -18 0
711 18 0
-712 -17 0
712 17 0
-713 -19 0
713 19 0
-714 -69 0
714 69 0
-715 -10 0
715 10 0
-716 -72 0
716 72 0
-717 -75 0
717 75 0
-718 -24 0
718 24 0
-719 -25 0
719 25 0
-720 -78 0
720 78 0
-721 -27 0
721 27 0
-722 -81 0
722 81 0
-723 -30 0
723 30 0
-724 -84 0
724 84 0
-725 -13 0
725 13 0
-726 -20 0
726 20 0
-727 -87 0
727 87 0
-728 -32 0
728 32 0
-729 -90 0
729 90 0
-730 -3 0
730 3 0
-731 -93 0
731 93 0
-732 -96 0
732 96 0
-733 -99 0
733 99 0
-734 -38 0
734 38 0
-735 -102 0
735 102 0
-736 -39 0
736 39 0
-737 -23 0
737 23 0
-738 -105 0
738 105 0
-739 -40 0
739 40 0
-740 -108 0
740 108 0
-741 -11 0
741 11 0
-742 -111 0
742 111 0
-743 -114 0
743 114 0
-744 -21 0
744 21 0
-745 -117 0
745 117 0
-746 -41 0
746 41 0
-747 -120 0
747 120 0
-748 -123 0
748 123 0
-749 -4 0
749 4 0
-750 -126 0
750 126 0
-751 -26 0
751 26 0
-752 -129 0
752 129 0
-753 -42 0
753 42 0
-754 -29 0
754 29 0
-755 -43 0
755 43 0
-756 -132 0
756 132 0
-757 -135 0
757 135 0
-758 -138 0
758 138 0
-759 -141 0
759 141 0
-760 -44 0
760 44 0
-761 -144 0
761 144 0
-762 -147 0
762 147 0
-763 -150 0
763 150 0
-764 -153 0
764 153 0
-765 -156 0
765 156 0
-766 -45 0
766 45 0
-767 -37 0
767 37 0
-768 -159 0
768 159 0
-769 -162 0
769 162 0
-770 -36 0
770 36 0
-771 -165 0
771 165 0
-772 -168 0
772 168 0
-773 -22 0
773 22 0
-774 -171 0
774 171 0
-775 -174 0
775 174 0
-776 -177 0
776 177 0
-777 -35 0
777 35 0
-778 -180 0
778 180 0
-779 -183 0
779 183 0
-780 -33 0
780 33 0
-781 -186 0
781 186 0
-782 -189 0
782 189 0
-783 -47 0
783 47 0
-784 -192 0
784 192 0
-785 -195 0
785 195 0
-786 -198 0
786 198 0
-787 -201 0
787 201 0
-788 -204 0
788 204 0
-789 -207 0
789 207 0
-790 -210 0
790 210 0
-791 -28 0
791 28 0
-792 -48 0
792 48 0
-793 -213 0
793 213 0
-794 -215 0
794 215 0
-795 -218 0
795 218 0
-796 -221 0
796 221 0
-797 -224 0
797 224 0
-798 -227 0
798 227 0
-799 -230 0
799 230 0
-800 -233 0
800 233 0
-801 -236 0
801 236 0
-802 -239 0
802 239 0
-803 -242 0
803 242 0
-804 -245 0
804 245 0
-805 -248 0
805 248 0
-806 -251 0
806 251 0
-807 -254 0
807 254 0
-808 -257 0
808 257 0
-809 -260 0
809 260 0
-810 -263 0
810 263 0
-811 -266 0
811 266 0
-812 -34 0
812 34 0
-813 -269 0
813 269 0
-814 -16 0
814 16 0
-815 -272 0
815 272 0
-816 -275 0
816 275 0
-817 -49 0
817 49 0
-818 -278 0
818 278 0
-819 -281 0
819 281 0
-820 -284 0
820 284 0
-821 -287 0
821 287 0
-822 -290 0
822 290 0
-823 -31 0
823 31 0
-824 -293 0
824 293 0
-825 -296 0
825 296 0
-826 -299 0
826 299 0
-827 -302 0
827 302 0
-828 -305 0
828 305 0
-829 -308 0
829 308 0
-830 -311 0
830 311 0
-831 -314 0
831 314 0
-832 -317 0
832 317 0
-833 -319 0
833 319 0
-834 -322 0
834 322 0
-835 -325 0
835 325 0
-836 -328 0
836 328 0
-837 -1 0
837 1 0
-838 -331 0
838 331 0
-839 -334 0
839 334 0
-840 -337 0
840 337 0
-841 -340 0
841 340 0
-842 -343 0
842 343 0
-843 -346 0
843 346 0
-844 -349 0
844 349 0
-845 -46 0
845 46 0
-846 -352 0
846 352 0
-847 -355 0
847 355 0
-848 -358 0
848 358 0
-849 -361 0
849 361 0
-850 -364 0
850 364 0
-851 -367 0
851 367 0
-852 -370 0
852 370 0
-853 -373 0
853 373 0
-854 -50 0
854 50 0
-855 -376 0
855 376 0
-856 -379 0
856 379 0
-857 -382 0
857 382 0
-858 -385 0
858 385 0
-859 -388 0
859 388 0
-860 -391 0
860 391 0
-861 -394 0
861 394 0
-862 -397 0
862 397 0
-863 -400 0
863 400 0
-864 -403 0
864 403 0
-865 -406 0
865 406 0
-866 -409 0
866 409 0
-867 -412 0
867 412 0
-868 -414 0
868 414 0
-869 -417 0
869 417 0
-870 -420 0
870 420 0
-871 -423 0
871 423 0
-872 -426 0
872 426 0
-873 -429 0
873 429 0
-874 -432 0
874 432 0
-875 -435 0
875 435 0
-876 -438 0
876 438 0
-877 -440 0
877 440 0
-878 -443 0
878 443 0
-879 -445 0
879 445 0
-880 -448 0
880 448 0
-881 -451 0
881 451 0
-882 -454 0
882 454 0
-883 -457 0
883 457 0
-884 -460 0
884 460 0
-885 -463 0
885 463 0
-886 -466 0
886 466 0
-887 -469 0
887 469 0
-888 -472 0
888 472 0
-889 -475 0
889 475 0
-890 -478 0
890 478 0
-891 -481 0
891 481 0
-892 -484 0
892 484 0
-893 -487 0
893 487 0
-894 -490 0
894 490 0
-895 -493 0
895 493 0
-896 -496 0
896 496 0
-897 -499 0
897 499 0
-898 -502 0
898 502 0
-899 -505 0
899 505 0
-900 -508 0
900 508 0
-901 -511 0
901 511 0
-902 -514 0
902 514 0
-903 -516 0
903 516 0
-904 -519 0
904 519 0
-905 -522 0
905 522 0
-906 -525 0
906 525 0
-907 -528 0
907 528 0
-908 -531 0
908 531 0
-909 -534 0
909 534 0
-910 -537 0
910 537 0
-911 -540 0
911 540 0
-912 -543 0
912 543 0
-913 -546 0
913 546 0
-914 -549 0
914 549 0
-915 -552 0
915 552 0
-916 -555 0
916 555 0
-917 -558 0
917 558 0
-918 -561 0
918 561 0
-919 -564 0
919 564 0
-920 -567 0
920 567 0
-921 -570 0
921 570 0
-922 -573 0
922 573 0
-923 -576 0
923 576 0
-924 -579 0
924 579 0
-925 -582 0
925 582 0
-926 -585 0
926 585 0
-927 -588 0
927 588 0
-928 -591 0
928 591 0
-929 -594 0
929 594 0
-930 -597 0
930 597 0
-931 -600 0
931 600 0
-932 -603 0
932 603 0
-933 -606 0
933 606 0
-934 -609 0
934 609 0
-935 -612 0
935 612 0
-936 -615 0
936 615 0
-937 -618 0
937 618 0
-938 -621 0
938 621 0
-939 -624 0
939 624 0
-940 -627 0
940 627 0
-941 -630 0
941 630 0
-942 -633 0
942 633 0
-943 -636 0
943 636 0
-944 -638 0
944 638 0
-945 -641 0
945 641 0
-946 -644 0
946 644 0
-947 -647 0
947 647 0
-948 -650 0
948 650 0
-949 -653 0
949 653 0
-950 -656 0
950 656 0
-951 -659 0
951 659 0
-952 -662 0
952 662 0
-953 -665 0
953 665 0
-954 -667 0
954 667 0
-955 -670 0
955 670 0
-956 -673 0
956 673 0
-957 -676 0
957 676 0
-958 -679 0
958 679 0
-959 -682 0
959 682 0
-960 -685 0
960 685 0
-961 -688 0
961 688 0
-962 -691 0
962 691 0
-963 -694 0
963 694 0
695 0
